
Gurobi 9.5.1 (linux64) logging started Mon Apr  4 12:17:17 2022

Set parameter LogFile to value "../results/logs/log_2022_04_04_12_17.csv_2_250.log"
Gurobi Optimizer version 9.5.1 build v9.5.1rc2 (linux64)
Thread count: 8 physical cores, 8 logical processors, using up to 8 threads
Optimize a model with 4731 rows, 116456 columns and 41097 nonzeros
Model fingerprint: 0x371ccd83
Variable types: 0 continuous, 116456 integer (116456 binary)
Coefficient statistics:
  Matrix range     [1e+00, 2e+00]
  Objective range  [1e+00, 1e+00]
  Bounds range     [1e+00, 1e+00]
  RHS range        [1e+00, 2e+02]
Found heuristic solution: objective 34706.000000
Presolve removed 3544 rows and 114873 columns
Presolve time: 0.05s
Presolved: 1187 rows, 1583 columns, 4401 nonzeros
Found heuristic solution: objective 34956.000000
Variable types: 0 continuous, 1583 integer (1520 binary)

Root relaxation: objective 3.529150e+04, 873 iterations, 0.01 seconds (0.01 work units)

    Nodes    |    Current Node    |     Objective Bounds      |     Work
 Expl Unexpl |  Obj  Depth IntInf | Incumbent    BestBd   Gap | It/Node Time

     0     0 35291.5000    0   65 34956.0000 35291.5000  0.96%     -    0s
H    0     0                    35247.000000 35291.5000  0.13%     -    0s
H    0     0                    35256.000000 35291.5000  0.10%     -    0s
     0     0 35281.0000    0   78 35256.0000 35281.0000  0.07%     -    0s
H    0     0                    35260.000000 35281.0000  0.06%     -    0s
     0     0 35281.0000    0   76 35260.0000 35281.0000  0.06%     -    0s
     0     0 35281.0000    0   79 35260.0000 35281.0000  0.06%     -    0s
     0     0 35281.0000    0   70 35260.0000 35281.0000  0.06%     -    0s
H    0     0                    35265.000000 35281.0000  0.05%     -    0s
     0     0 35281.0000    0   68 35265.0000 35281.0000  0.05%     -    0s
     0     0 35281.0000    0   68 35265.0000 35281.0000  0.05%     -    0s
     0     0 35281.0000    0   68 35265.0000 35281.0000  0.05%     -    0s
     0     2 35281.0000    0   68 35265.0000 35281.0000  0.05%     -    0s
H   27     2                    35267.000000 35267.0000  0.00%  52.7    0s

Cutting planes:
  Gomory: 42
  Cover: 134
  Implied bound: 32
  MIR: 128
  GUB cover: 136
  Zero half: 6
  Mod-K: 2
  RLT: 2

Explored 29 nodes (3919 simplex iterations) in 0.33 seconds (0.26 work units)
Thread count was 8 (of 8 available processors)

Solution count 7: 35267 35265 35260 ... 34706

Optimal solution found (tolerance 0.00e+00)
Best objective 3.526700000000e+04, best bound 3.526700000000e+04, gap 0.0000%
